NAME: cum250.tsp
TYPE: TSP
COMMENT: User-generated TSP file
DIMENSION: 250
EDGE_WEIGHT_TYPE: EUC_2D
NODE_COORD_SECTION
1 53.0 43.0
2 20.0 98.0
3 10.0 74.0
4 74.0 66.0
5 90.0 98.0
6 68.0 61.0
7 33.0 18.0
8 64.0 61.0
9 43.0 23.0
10 50.0 54.0
11 50.0 50.0
12 56.0 37.0
13 55.0 63.0
14 91.0 71.0
15 55.0 92.0
16 18.0 85.0
17 35.0 9.0
18 97.0 87.0
19 61.0 20.0
20 14.0 75.0
21 74.0 58.0
22 49.0 62.0
23 99.0 89.0
24 5.0 83.0
25 8.0 13.0
26 60.0 28.0
27 67.0 78.0
28 8.0 36.0
29 15.0 97.0
30 40.0 68.0
31 14.0 53.0
32 21.0 42.0
33 56.0 50.0
34 39.0 47.0
35 13.0 10.0
36 91.0 82.0
37 48.0 67.0
38 18.0 13.0
39 60.0 99.0
40 39.0 14.0
41 3.0 12.0
42 20.0 63.0
43 20.0 24.0
44 95.0 96.0
45 26.0 85.0
46 9.0 35.0
47 96.0 2.0
48 57.0 57.0
49 27.0 82.0
50 57.0 86.0
51 83.0 31.0
52 11.0 96.0
53 88.0 85.0
54 75.0 70.0
55 29.0 77.0
56 18.0 18.0
57 33.0 84.0
58 54.0 27.0
59 25.0 92.0
60 46.0 13.0
61 41.0 23.0
62 98.0 30.0
63 53.0 45.0
64 95.0 75.0
65 82.0 60.0
66 37.0 86.0
67 47.0 92.0
68 50.0 90.0
69 16.0 34.0
70 74.0 91.0
71 82.0 88.0
72 8.0 3.0
73 86.0 17.0
74 6.0 10.0
75 22.0 56.0
76 43.0 36.0
77 37.0 67.0
78 86.0 35.0
79 80.0 79.0
80 92.0 74.0
81 27.0 64.0
82 93.0 95.0
83 77.0 92.0
84 27.0 13.0
85 64.0 9.0
86 38.0 15.0
87 87.0 90.0
88 45.0 12.0
89 67.0 44.0
90 49.0 76.0
91 7.0 76.0
92 68.0 33.0
93 95.0 41.0
94 88.0 60.0
95 92.0 27.0
96 82.0 63.0
97 21.0 34.0
98 6.0 82.0
99 14.0 49.0
100 60.0 37.0
101 89.0 89.0
102 76.0 45.0
103 39.0 96.0
104 25.0 65.0
105 64.0 53.0
106 99.0 69.0
107 41.0 62.0
108 52.0 85.0
109 25.0 59.0
110 97.0 65.0
111 3.0 85.0
112 85.0 45.0
113 16.0 10.0
114 51.0 53.0
115 6.0 83.0
116 6.0 14.0
117 84.0 88.0
118 11.0 41.0
119 43.0 94.0
120 68.0 85.0
121 100.0 63.0
122 50.0 29.0
123 71.0 66.0
124 8.0 39.0
125 100.0 18.0
126 21.0 85.0
127 88.0 70.0
128 50.0 45.0
129 34.0 8.0
130 21.0 1.0
131 81.0 75.0
132 48.0 95.0
133 49.0 13.0
134 94.0 25.0
135 38.0 42.0
136 30.0 71.0
137 35.0 49.0
138 72.0 33.0
139 4.0 63.0
140 91.0 68.0
141 42.0 81.0
142 81.0 3.0
143 75.0 24.0
144 25.0 36.0
145 83.0 45.0
146 15.0 46.0
147 4.0 67.0
148 76.0 32.0
149 21.0 60.0
150 23.0 42.0
151 85.0 49.0
152 37.0 13.0
153 6.0 16.0
154 55.0 13.0
155 48.0 41.0
156 55.0 92.0
157 72.0 30.0
158 12.0 91.0
159 14.0 60.0
160 14.0 65.0
161 46.0 85.0
162 36.0 72.0
163 58.0 90.0
164 20.0 29.0
165 21.0 59.0
166 40.0 37.0
167 78.0 67.0
168 83.0 44.0
169 58.0 17.0
170 10.0 18.0
171 50.0 45.0
172 82.0 73.0
173 17.0 14.0
174 86.0 52.0
175 24.0 52.0
176 37.0 65.0
177 61.0 69.0
178 98.0 60.0
179 51.0 87.0
180 100.0 39.0
181 86.0 39.0
182 65.0 28.0
183 67.0 2.0
184 6.0 27.0
185 38.0 97.0
186 23.0 89.0
187 64.0 31.0
188 13.0 29.0
189 94.0 20.0
190 70.0 53.0
191 11.0 6.0
192 38.0 41.0
193 97.0 49.0
194 86.0 53.0
195 30.0 98.0
196 6.0 39.0
197 71.0 42.0
198 67.0 64.0
199 56.0 23.0
200 39.0 94.0
201 51.0 82.0
202 93.0 10.0
203 14.0 42.0
204 32.0 47.0
205 48.0 48.0
206 94.0 77.0
207 81.0 89.0
208 89.0 58.0
209 86.0 43.0
210 2.0 75.0
211 90.0 96.0
212 2.0 67.0
213 56.0 42.0
214 64.0 87.0
215 49.0 58.0
216 98.0 17.0
217 32.0 18.0
218 91.0 42.0
219 19.0 42.0
220 85.0 62.0
221 49.0 51.0
222 5.0 88.0
223 13.0 26.0
224 40.0 94.0
225 84.0 88.0
226 61.0 96.0
227 5.0 53.0
228 11.0 25.0
229 44.0 69.0
230 80.0 18.0
231 89.0 78.0
232 75.0 95.0
233 3.0 21.0
234 36.0 28.0
235 65.0 34.0
236 61.0 61.0
237 23.0 48.0
238 96.0 68.0
239 76.0 37.0
240 8.0 89.0
241 49.0 41.0
242 62.0 22.0
243 57.0 73.0
244 15.0 27.0
245 34.0 26.0
246 73.0 89.0
247 85.0 79.0
248 42.0 61.0
249 47.0 50.0
250 33.0 76.0
EOF

